************************************************************************
file with basedata            : j9030_.bas
initial value random generator: 959709226
************************************************************************
projects                      :  1
jobs (incl. supersource/sink ):  92
horizon                       :  480
RESOURCES
  - renewable                 :  4   R
  - nonrenewable              :  0   N
  - doubly constrained        :  0   D
************************************************************************
PROJECT INFORMATION:
pronr.  #jobs rel.date duedate tardcost  MPM-Time
    1     90      0      102       83      102
************************************************************************
PRECEDENCE RELATIONS:
jobnr.    #modes  #successors   successors
   1        1          3           2   3   4
   2        1          3           5   6  11
   3        1          3           9  19  33
   4        1          2          20  22
   5        1          3          49  57  63
   6        1          3           7  27  47
   7        1          3           8  10  12
   8        1          2          21  29
   9        1          3          14  20  51
  10        1          3          13  15  17
  11        1          1          36
  12        1          3          39  42  64
  13        1          3          16  18  61
  14        1          2          30  44
  15        1          2          36  78
  16        1          3          30  42  70
  17        1          2          23  65
  18        1          3          24  26  45
  19        1          3          40  41  55
  20        1          2          35  66
  21        1          2          37  53
  22        1          1          25
  23        1          3          28  37  64
  24        1          2          59  77
  25        1          3          29  31  76
  26        1          2          32  68
  27        1          1          29
  28        1          3          48  50  55
  29        1          2          36  58
  30        1          1          80
  31        1          1          34
  32        1          3          34  71  78
  33        1          3          45  52  60
  34        1          1          38
  35        1          1          53
  36        1          2          42  46
  37        1          2          39  43
  38        1          3          59  66  75
  39        1          1          81
  40        1          2          82  85
  41        1          3          45  48  50
  42        1          3          52  62  68
  43        1          1          63
  44        1          3          47  56  68
  45        1          1          88
  46        1          3          48  54  84
  47        1          1          67
  48        1          1          69
  49        1          1          86
  50        1          1          63
  51        1          1          77
  52        1          1          86
  53        1          1          72
  54        1          2          70  73
  55        1          2          73  81
  56        1          1          79
  57        1          2          59  76
  58        1          1          75
  59        1          2          65  69
  60        1          2          62  71
  61        1          3          66  67  85
  62        1          2          74  89
  63        1          2          74  81
  64        1          1          91
  65        1          1          79
  66        1          1          70
  67        1          3          75  76  84
  68        1          1          72
  69        1          1          80
  70        1          1          72
  71        1          2          74  77
  72        1          1          83
  73        1          2          79  91
  74        1          1          84
  75        1          1          89
  76        1          1          82
  77        1          1          88
  78        1          1          82
  79        1          1          80
  80        1          2          85  89
  81        1          2          83  90
  82        1          2          87  90
  83        1          1          86
  84        1          1          87
  85        1          1          90
  86        1          1          87
  87        1          1          88
  88        1          1          91
  89        1          1          92
  90        1          1          92
  91        1          1          92
  92        1          0        
************************************************************************
REQUESTS/DURATIONS:
jobnr. mode duration  R 1  R 2  R 3  R 4
------------------------------------------------------------------------
  1      1     0       0    0    0    0
  2      1    10       8    1    9    3
  3      1     8       3    3    5    6
  4      1     5       3    4   10    9
  5      1     5       6    4    1    1
  6      1     6      10    4    2    9
  7      1     4      10    7    1    2
  8      1     1       5    2    7    9
  9      1     3       6   10    7    4
 10      1     2       4    4    1    2
 11      1     3       7   10   10    3
 12      1     2       3    8    8   10
 13      1     7       8   10    9    8
 14      1     8      10    3    4    3
 15      1     8       9    5    5    8
 16      1     2       7    4    6    8
 17      1     1      10    1    1    1
 18      1    10       1    9    2    3
 19      1     7       1    2    8   10
 20      1     3       4    8    2    1
 21      1     5       7    3    6    7
 22      1     7       2    8    9    1
 23      1     4       1    1    3    3
 24      1     5       6    1    5    2
 25      1    10      10    8    1    3
 26      1     5       3    9    8    4
 27      1    10       3    5    3    9
 28      1    10       4   10    1   10
 29      1     9       9    1    6    9
 30      1     1      10    2    6    2
 31      1     1       5    2    2    2
 32      1     4       1    6    4    2
 33      1     9       2    1    6    7
 34      1     6       3    9   10    3
 35      1    10       7    8    7    5
 36      1     2       8    7    5    3
 37      1     3       9    5    7    7
 38      1     5       4    1    7    7
 39      1     6       9    4    7    8
 40      1     3       2    6    9    8
 41      1     4       2   10    9    1
 42      1     6       1    1    7    5
 43      1     5       6    5    8    9
 44      1     5       6    7    8    2
 45      1     6       1    7    1    3
 46      1     3       6    7    1    7
 47      1     5       5    2    5    2
 48      1    10       4    6    1    6
 49      1     6       5    5    3    2
 50      1     8       2    2    6   10
 51      1     1       3    6    9    8
 52      1     1       8    6    5    5
 53      1     3       7    7    3    4
 54      1     9       7    4    6    7
 55      1     9       7    7    8    2
 56      1     8       3    1    6    7
 57      1     7       8    7    5    9
 58      1     6       6    7    4    5
 59      1     8       8    4    6    5
 60      1     1       9    3    9    1
 61      1     1       5   10    7    1
 62      1     8      10   10    2   10
 63      1     9       1   10    7    9
 64      1     9       3    6    8    7
 65      1     5       2    3    8    9
 66      1     2      10   10    7    8
 67      1     5       2    4    5    2
 68      1     7       9    1    9    9
 69      1     4       1    1    9    1
 70      1     1      10    6    5    4
 71      1     2      10    1    8    9
 72      1     7       2    4    4   10
 73      1     1      10    9    8    1
 74      1     7       2   10    8    4
 75      1     2       1    9   10    2
 76      1     1      10    3    3    9
 77      1     3       7    6    2    4
 78      1     3       1    7   10    5
 79      1    10       9    3   10    9
 80      1     4       7    8    9    2
 81      1     9       8    9    5    9
 82      1     9       2    6    3   10
 83      1     8       7    7    2    3
 84      1     8       2    9    4    8
 85      1     9       1    1   10    9
 86      1     6       6    1    7    1
 87      1     3       5    7    1    5
 88      1     3       8    9    9    1
 89      1     4       8    1    1    1
 90      1     7      10    5    2    6
 91      1     2       3    1    5    6
 92      1     0       0    0    0    0
************************************************************************
RESOURCEAVAILABILITIES:
  R 1  R 2  R 3  R 4
   38   36   33   37
************************************************************************
